c t mc
c file mc2022_track1_073.cnf
p cnf 300 920
3 0
-4 20 -36 0
4 20 36 0
-4 -20 36 0
4 -20 36 0
-5 21 -37 0
5 21 36 -37 0
5 21 -36 37 0
-5 -21 36 -37 0
-5 -21 -36 37 0
5 -21 37 0
-6 22 -38 0
6 22 37 -38 0
6 22 -37 38 0
-6 -22 37 -38 0
-6 -22 -37 38 0
6 -22 38 0
-7 23 -39 0
7 23 38 -39 0
7 23 -38 39 0
-7 -23 38 -39 0
-7 -23 -38 39 0
7 -23 39 0
-8 24 -40 0
8 24 39 -40 0
8 24 -39 40 0
-8 -24 39 -40 0
-8 -24 -39 40 0
8 -24 40 0
-9 25 -41 0
9 25 40 -41 0
9 25 -40 41 0
-9 -25 40 -41 0
-9 -25 -40 41 0
9 -25 41 0
-10 26 -42 0
10 26 41 -42 0
10 26 -41 42 0
-10 -26 41 -42 0
-10 -26 -41 42 0
10 -26 42 0
-11 27 -43 0
11 27 42 -43 0
11 27 -42 43 0
-11 -27 42 -43 0
-11 -27 -42 43 0
11 -27 43 0
-12 28 -44 0
12 28 43 -44 0
12 28 -43 44 0
-12 -28 43 -44 0
-12 -28 -43 44 0
12 -28 44 0
-13 29 -45 0
13 29 44 -45 0
13 29 -44 45 0
-13 -29 44 -45 0
-13 -29 -44 45 0
13 -29 45 0
-14 30 -46 0
14 30 45 -46 0
14 30 -45 46 0
-14 -30 45 -46 0
-14 -30 -45 46 0
14 -30 46 0
-15 31 -47 0
15 31 46 -47 0
15 31 -46 47 0
-15 -31 46 -47 0
-15 -31 -46 47 0
15 -31 47 0
-16 32 -48 0
16 32 47 -48 0
16 32 -47 48 0
-16 -32 47 -48 0
-16 -32 -47 48 0
16 -32 48 0
-17 33 -49 0
17 33 48 -49 0
17 33 -48 49 0
-17 -33 48 -49 0
-17 -33 -48 49 0
17 -33 49 0
-18 34 -50 0
18 34 49 -50 0
18 34 -49 50 0
-18 -34 49 -50 0
-18 -34 -49 50 0
18 -34 50 0
-19 35 -51 0
19 35 50 -51 0
19 35 -50 51 0
-19 -35 50 -51 0
-19 -35 -50 51 0
19 -35 51 0
-19 35 -52 0
19 35 51 -52 0
19 35 -51 52 0
-19 -35 51 -52 0
-19 -35 -51 52 0
19 -35 52 0
-19 35 -53 0
19 35 52 -53 0
19 35 -52 53 0
-19 -35 52 -53 0
-19 -35 -52 53 0
19 -35 53 0
-19 35 -54 0
19 35 53 -54 0
19 35 -53 54 0
-19 -35 53 -54 0
-19 -35 -53 54 0
19 -35 54 0
-19 35 -55 0
19 35 54 -55 0
19 35 -54 55 0
-19 -35 54 -55 0
-19 -35 -54 55 0
19 -35 55 0
-19 35 -56 0
19 35 55 -56 0
19 35 -55 56 0
-19 -35 55 -56 0
-19 -35 -55 56 0
19 -35 56 0
-19 35 -57 0
19 35 56 -57 0
19 35 -56 57 0
-19 -35 56 -57 0
-19 -35 -56 57 0
19 -35 57 0
-19 35 -58 0
19 35 57 -58 0
19 35 -57 58 0
-19 -35 57 -58 0
-19 -35 -57 58 0
19 -35 58 0
-19 35 -59 0
19 35 58 -59 0
19 35 -58 59 0
-19 -35 58 -59 0
-19 -35 -58 59 0
19 -35 59 0
-19 35 -60 0
19 35 59 -60 0
19 35 -59 60 0
-19 -35 59 -60 0
-19 -35 -59 60 0
19 -35 60 0
-19 35 -61 0
19 35 60 -61 0
19 35 -60 61 0
-19 -35 60 -61 0
-19 -35 -60 61 0
19 -35 61 0
-19 35 -62 0
19 35 61 -62 0
19 35 -61 62 0
-19 -35 61 -62 0
-19 -35 -61 62 0
19 -35 62 0
-19 35 -63 0
19 35 62 -63 0
19 35 -62 63 0
-19 -35 62 -63 0
-19 -35 -62 63 0
19 -35 63 0
-19 35 -64 0
19 35 63 -64 0
19 35 -63 64 0
-19 -35 63 -64 0
-19 -35 -63 64 0
19 -35 64 0
-19 35 -65 0
19 35 64 -65 0
19 35 -64 65 0
-19 -35 64 -65 0
-19 -35 -64 65 0
19 -35 65 0
-19 35 -66 0
19 35 65 -66 0
19 35 -65 66 0
-19 -35 65 -66 0
-19 -35 -65 66 0
19 -35 66 0
-19 35 -67 0
19 35 66 -67 0
19 35 -66 67 0
-19 -35 66 -67 0
-19 -35 -66 67 0
19 -35 67 0
-19 -35 -68 0
19 35 -68 0
19 -35 68 0
-19 35 68 0
-67 68 -69 0
67 -68 -69 0
67 68 69 0
-67 -68 69 0
-4 -20 -70 0
4 20 -70 0
4 -20 70 0
-4 20 70 0
-5 -21 -71 0
5 21 -71 0
5 -21 71 0
-5 21 71 0
-6 -22 -72 0
6 22 -72 0
6 -22 72 0
-6 22 72 0
-7 -23 -73 0
7 23 -73 0
7 -23 73 0
-7 23 73 0
-8 -24 -74 0
8 24 -74 0
8 -24 74 0
-8 24 74 0
-9 -25 -75 0
9 25 -75 0
9 -25 75 0
-9 25 75 0
-10 -26 -76 0
10 26 -76 0
10 -26 76 0
-10 26 76 0
-11 -27 -77 0
11 27 -77 0
11 -27 77 0
-11 27 77 0
-12 -28 -78 0
12 28 -78 0
12 -28 78 0
-12 28 78 0
-13 -29 -79 0
13 29 -79 0
13 -29 79 0
-13 29 79 0
-14 -30 -80 0
14 30 -80 0
14 -30 80 0
-14 30 80 0
-15 -31 -81 0
15 31 -81 0
15 -31 81 0
-15 31 81 0
-16 -32 -82 0
16 32 -82 0
16 -32 82 0
-16 32 82 0
-17 -33 -83 0
17 33 -83 0
17 -33 83 0
-17 33 83 0
-18 -34 -84 0
18 34 -84 0
18 -34 84 0
-18 34 84 0
-19 -35 -85 0
19 35 -85 0
19 -35 85 0
-19 35 85 0
-19 -35 -86 0
19 35 -86 0
19 -35 86 0
-19 35 86 0
-19 -35 -87 0
19 35 -87 0
19 -35 87 0
-19 35 87 0
-19 -35 -88 0
19 35 -88 0
19 -35 88 0
-19 35 88 0
-19 -35 -89 0
19 35 -89 0
19 -35 89 0
-19 35 89 0
-19 -35 -90 0
19 35 -90 0
19 -35 90 0
-19 35 90 0
-19 -35 -91 0
19 35 -91 0
19 -35 91 0
-19 35 91 0
-19 -35 -92 0
19 35 -92 0
19 -35 92 0
-19 35 92 0
-19 -35 -93 0
19 35 -93 0
19 -35 93 0
-19 35 93 0
-19 -35 -94 0
19 35 -94 0
19 -35 94 0
-19 35 94 0
-19 -35 -95 0
19 35 -95 0
19 -35 95 0
-19 35 95 0
-19 -35 -96 0
19 35 -96 0
19 -35 96 0
-19 35 96 0
-19 -35 -97 0
19 35 -97 0
19 -35 97 0
-19 35 97 0
-19 -35 -98 0
19 35 -98 0
19 -35 98 0
-19 35 98 0
-19 -35 -99 0
19 35 -99 0
19 -35 99 0
-19 35 99 0
-19 -35 -100 0
19 35 -100 0
19 -35 100 0
-19 35 100 0
-19 -35 -101 0
19 35 -101 0
19 -35 101 0
-19 35 101 0
-70 -102 0
-71 -102 0
-72 -102 0
-73 -102 0
-74 -102 0
-75 -102 0
-76 -102 0
-77 -102 0
-78 -102 0
-79 -102 0
-80 -102 0
-81 -102 0
-82 -102 0
-83 -102 0
-84 -102 0
-85 -102 0
-86 -102 0
-87 -102 0
-88 -102 0
-89 -102 0
-90 -102 0
-91 -102 0
-92 -102 0
-93 -102 0
-94 -102 0
-95 -102 0
-96 -102 0
-97 -102 0
-98 -102 0
-99 -102 0
-100 -102 0
-101 -102 0
70 71 72 73 74 75 76 77 78 79 80 81 82 83 84 85 86 87 88 89 90 91 92 93 94 95 96 97 98 99 100 101 102 0
-69 103 0
-102 103 0
69 102 -103 0
104 105 0
-103 105 0
103 -104 -105 0
105 0
-1 103 -106 0
1 -103 -106 0
-1 -103 106 0
1 103 106 0
-106 0
1 -20 123 0
1 20 -123 0
-1 -4 123 0
-1 4 -123 0
1 -21 124 0
1 21 -124 0
-1 -5 124 0
-1 5 -124 0
1 -22 125 0
1 22 -125 0
-1 -6 125 0
-1 6 -125 0
1 -23 126 0
1 23 -126 0
-1 -7 126 0
-1 7 -126 0
1 -24 127 0
1 24 -127 0
-1 -8 127 0
-1 8 -127 0
1 -25 128 0
1 25 -128 0
-1 -9 128 0
-1 9 -128 0
1 -26 129 0
1 26 -129 0
-1 -10 129 0
-1 10 -129 0
1 -27 130 0
1 27 -130 0
-1 -11 130 0
-1 11 -130 0
1 -28 131 0
1 28 -131 0
-1 -12 131 0
-1 12 -131 0
1 -29 132 0
1 29 -132 0
-1 -13 132 0
-1 13 -132 0
1 -30 133 0
1 30 -133 0
-1 -14 133 0
-1 14 -133 0
1 -31 134 0
1 31 -134 0
-1 -15 134 0
-1 15 -134 0
1 -32 135 0
1 32 -135 0
-1 -16 135 0
-1 16 -135 0
1 -33 136 0
1 33 -136 0
-1 -17 136 0
-1 17 -136 0
1 -34 137 0
1 34 -137 0
-1 -18 137 0
-1 18 -137 0
1 -35 138 0
1 35 -138 0
-1 -19 138 0
-1 19 -138 0
-4 139 -155 0
4 139 155 0
-4 -139 155 0
4 -139 155 0
-5 140 -156 0
5 140 155 -156 0
5 140 -155 156 0
-5 -140 155 -156 0
-5 -140 -155 156 0
5 -140 156 0
-6 141 -157 0
6 141 156 -157 0
6 141 -156 157 0
-6 -141 156 -157 0
-6 -141 -156 157 0
6 -141 157 0
-7 142 -158 0
7 142 157 -158 0
7 142 -157 158 0
-7 -142 157 -158 0
-7 -142 -157 158 0
7 -142 158 0
-8 143 -159 0
8 143 158 -159 0
8 143 -158 159 0
-8 -143 158 -159 0
-8 -143 -158 159 0
8 -143 159 0
-9 144 -160 0
9 144 159 -160 0
9 144 -159 160 0
-9 -144 159 -160 0
-9 -144 -159 160 0
9 -144 160 0
-10 145 -161 0
10 145 160 -161 0
10 145 -160 161 0
-10 -145 160 -161 0
-10 -145 -160 161 0
10 -145 161 0
-11 146 -162 0
11 146 161 -162 0
11 146 -161 162 0
-11 -146 161 -162 0
-11 -146 -161 162 0
11 -146 162 0
-12 147 -163 0
12 147 162 -163 0
12 147 -162 163 0
-12 -147 162 -163 0
-12 -147 -162 163 0
12 -147 163 0
-13 148 -164 0
13 148 163 -164 0
13 148 -163 164 0
-13 -148 163 -164 0
-13 -148 -163 164 0
13 -148 164 0
-14 149 -165 0
14 149 164 -165 0
14 149 -164 165 0
-14 -149 164 -165 0
-14 -149 -164 165 0
14 -149 165 0
-15 150 -166 0
15 150 165 -166 0
15 150 -165 166 0
-15 -150 165 -166 0
-15 -150 -165 166 0
15 -150 166 0
-16 151 -167 0
16 151 166 -167 0
16 151 -166 167 0
-16 -151 166 -167 0
-16 -151 -166 167 0
16 -151 167 0
-17 152 -168 0
17 152 167 -168 0
17 152 -167 168 0
-17 -152 167 -168 0
-17 -152 -167 168 0
17 -152 168 0
-18 153 -169 0
18 153 168 -169 0
18 153 -168 169 0
-18 -153 168 -169 0
-18 -153 -168 169 0
18 -153 169 0
-19 154 -170 0
19 154 169 -170 0
19 154 -169 170 0
-19 -154 169 -170 0
-19 -154 -169 170 0
19 -154 170 0
-19 154 -171 0
19 154 170 -171 0
19 154 -170 171 0
-19 -154 170 -171 0
-19 -154 -170 171 0
19 -154 171 0
-19 154 -172 0
19 154 171 -172 0
19 154 -171 172 0
-19 -154 171 -172 0
-19 -154 -171 172 0
19 -154 172 0
-19 154 -173 0
19 154 172 -173 0
19 154 -172 173 0
-19 -154 172 -173 0
-19 -154 -172 173 0
19 -154 173 0
-19 154 -174 0
19 154 173 -174 0
19 154 -173 174 0
-19 -154 173 -174 0
-19 -154 -173 174 0
19 -154 174 0
-19 154 -175 0
19 154 174 -175 0
19 154 -174 175 0
-19 -154 174 -175 0
-19 -154 -174 175 0
19 -154 175 0
-19 154 -176 0
19 154 175 -176 0
19 154 -175 176 0
-19 -154 175 -176 0
-19 -154 -175 176 0
19 -154 176 0
-19 154 -177 0
19 154 176 -177 0
19 154 -176 177 0
-19 -154 176 -177 0
-19 -154 -176 177 0
19 -154 177 0
-19 154 -178 0
19 154 177 -178 0
19 154 -177 178 0
-19 -154 177 -178 0
-19 -154 -177 178 0
19 -154 178 0
-19 154 -179 0
19 154 178 -179 0
19 154 -178 179 0
-19 -154 178 -179 0
-19 -154 -178 179 0
19 -154 179 0
-19 154 -180 0
19 154 179 -180 0
19 154 -179 180 0
-19 -154 179 -180 0
-19 -154 -179 180 0
19 -154 180 0
-19 154 -181 0
19 154 180 -181 0
19 154 -180 181 0
-19 -154 180 -181 0
-19 -154 -180 181 0
19 -154 181 0
-19 154 -182 0
19 154 181 -182 0
19 154 -181 182 0
-19 -154 181 -182 0
-19 -154 -181 182 0
19 -154 182 0
-19 154 -183 0
19 154 182 -183 0
19 154 -182 183 0
-19 -154 182 -183 0
-19 -154 -182 183 0
19 -154 183 0
-19 154 -184 0
19 154 183 -184 0
19 154 -183 184 0
-19 -154 183 -184 0
-19 -154 -183 184 0
19 -154 184 0
-19 154 -185 0
19 154 184 -185 0
19 154 -184 185 0
-19 -154 184 -185 0
-19 -154 -184 185 0
19 -154 185 0
-19 154 -186 0
19 154 185 -186 0
19 154 -185 186 0
-19 -154 185 -186 0
-19 -154 -185 186 0
19 -154 186 0
-19 -154 -187 0
19 154 -187 0
19 -154 187 0
-19 154 187 0
-186 187 -188 0
186 -187 -188 0
186 187 188 0
-186 -187 188 0
-4 -139 -189 0
4 139 -189 0
4 -139 189 0
-4 139 189 0
-5 -140 -190 0
5 140 -190 0
5 -140 190 0
-5 140 190 0
-6 -141 -191 0
6 141 -191 0
6 -141 191 0
-6 141 191 0
-7 -142 -192 0
7 142 -192 0
7 -142 192 0
-7 142 192 0
-8 -143 -193 0
8 143 -193 0
8 -143 193 0
-8 143 193 0
-9 -144 -194 0
9 144 -194 0
9 -144 194 0
-9 144 194 0
-10 -145 -195 0
10 145 -195 0
10 -145 195 0
-10 145 195 0
-11 -146 -196 0
11 146 -196 0
11 -146 196 0
-11 146 196 0
-12 -147 -197 0
12 147 -197 0
12 -147 197 0
-12 147 197 0
-13 -148 -198 0
13 148 -198 0
13 -148 198 0
-13 148 198 0
-14 -149 -199 0
14 149 -199 0
14 -149 199 0
-14 149 199 0
-15 -150 -200 0
15 150 -200 0
15 -150 200 0
-15 150 200 0
-16 -151 -201 0
16 151 -201 0
16 -151 201 0
-16 151 201 0
-17 -152 -202 0
17 152 -202 0
17 -152 202 0
-17 152 202 0
-18 -153 -203 0
18 153 -203 0
18 -153 203 0
-18 153 203 0
-19 -154 -204 0
19 154 -204 0
19 -154 204 0
-19 154 204 0
-19 -154 -205 0
19 154 -205 0
19 -154 205 0
-19 154 205 0
-19 -154 -206 0
19 154 -206 0
19 -154 206 0
-19 154 206 0
-19 -154 -207 0
19 154 -207 0
19 -154 207 0
-19 154 207 0
-19 -154 -208 0
19 154 -208 0
19 -154 208 0
-19 154 208 0
-19 -154 -209 0
19 154 -209 0
19 -154 209 0
-19 154 209 0
-19 -154 -210 0
19 154 -210 0
19 -154 210 0
-19 154 210 0
-19 -154 -211 0
19 154 -211 0
19 -154 211 0
-19 154 211 0
-19 -154 -212 0
19 154 -212 0
19 -154 212 0
-19 154 212 0
-19 -154 -213 0
19 154 -213 0
19 -154 213 0
-19 154 213 0
-19 -154 -214 0
19 154 -214 0
19 -154 214 0
-19 154 214 0
-19 -154 -215 0
19 154 -215 0
19 -154 215 0
-19 154 215 0
-19 -154 -216 0
19 154 -216 0
19 -154 216 0
-19 154 216 0
-19 -154 -217 0
19 154 -217 0
19 -154 217 0
-19 154 217 0
-19 -154 -218 0
19 154 -218 0
19 -154 218 0
-19 154 218 0
-19 -154 -219 0
19 154 -219 0
19 -154 219 0
-19 154 219 0
-19 -154 -220 0
19 154 -220 0
19 -154 220 0
-19 154 220 0
-189 -221 0
-190 -221 0
-191 -221 0
-192 -221 0
-193 -221 0
-194 -221 0
-195 -221 0
-196 -221 0
-197 -221 0
-198 -221 0
-199 -221 0
-200 -221 0
-201 -221 0
-202 -221 0
-203 -221 0
-204 -221 0
-205 -221 0
-206 -221 0
-207 -221 0
-208 -221 0
-209 -221 0
-210 -221 0
-211 -221 0
-212 -221 0
-213 -221 0
-214 -221 0
-215 -221 0
-216 -221 0
-217 -221 0
-218 -221 0
-219 -221 0
-220 -221 0
189 190 191 192 193 194 195 196 197 198 199 200 201 202 203 204 205 206 207 208 209 210 211 212 213 214 215 216 217 218 219 220 221 0
-188 222 0
-221 222 0
188 221 -222 0
223 224 0
-222 224 0
222 -223 -224 0
224 0
-2 222 -225 0
2 -222 -225 0
-2 -222 225 0
2 222 225 0
-225 0
2 -139 226 0
2 139 -226 0
-2 -4 226 0
-2 4 -226 0
2 -140 227 0
2 140 -227 0
-2 -5 227 0
-2 5 -227 0
2 -141 228 0
2 141 -228 0
-2 -6 228 0
-2 6 -228 0
2 -142 229 0
2 142 -229 0
-2 -7 229 0
-2 7 -229 0
2 -143 230 0
2 143 -230 0
-2 -8 230 0
-2 8 -230 0
2 -144 231 0
2 144 -231 0
-2 -9 231 0
-2 9 -231 0
2 -145 232 0
2 145 -232 0
-2 -10 232 0
-2 10 -232 0
2 -146 233 0
2 146 -233 0
-2 -11 233 0
-2 11 -233 0
2 -147 234 0
2 147 -234 0
-2 -12 234 0
-2 12 -234 0
2 -148 235 0
2 148 -235 0
-2 -13 235 0
-2 13 -235 0
2 -149 236 0
2 149 -236 0
-2 -14 236 0
-2 14 -236 0
2 -150 237 0
2 150 -237 0
-2 -15 237 0
-2 15 -237 0
2 -151 238 0
2 151 -238 0
-2 -16 238 0
-2 16 -238 0
2 -152 239 0
2 152 -239 0
-2 -17 239 0
-2 17 -239 0
2 -153 240 0
2 153 -240 0
-2 -18 240 0
-2 18 -240 0
2 -154 241 0
2 154 -241 0
-2 -19 241 0
-2 19 -241 0
-274 -277 -286 0
274 277 -286 0
-274 277 286 0
274 -277 286 0
-275 -278 -287 0
275 278 -287 0
-275 278 287 0
275 -278 287 0
-276 -279 -288 0
276 279 -288 0
-276 279 288 0
276 -279 288 0
-286 -289 0
-287 -289 0
-288 -289 0
286 287 288 289 0
-104 289 0
104 -289 0
-280 -283 -290 0
280 283 -290 0
-280 283 290 0
280 -283 290 0
-281 -284 -291 0
281 284 -291 0
-281 284 291 0
281 -284 291 0
-282 -285 -292 0
282 285 -292 0
-282 285 292 0
282 -285 292 0
-290 -293 0
-291 -293 0
-292 -293 0
290 291 292 293 0
-223 293 0
223 -293 0
-294 -296 -298 0
294 296 -298 0
-294 296 298 0
294 -296 298 0
-295 -297 -299 0
295 297 -299 0
-295 297 299 0
295 -297 299 0
-298 -300 0
-299 -300 0
298 299 300 0
-3 300 0
3 -300 0
